c "315139.clq"
p edge 250 3744
e 1 17
e 1 18
e 1 19
e 1 20
e 1 21
e 1 25
e 1 26
e 1 28
e 1 30
e 1 31
e 1 33
e 1 35
e 1 38
e 1 39
e 1 51
e 1 63
e 1 68
e 1 78
e 1 86
e 1 90
e 1 93
e 1 97
e 1 136
e 1 146
e 1 180
e 1 193
e 1 231
e 1 244
e 2 17
e 2 18
e 2 20
e 2 21
e 2 22
e 2 23
e 2 26
e 2 27
e 2 32
e 2 33
e 2 36
e 2 38
e 2 40
e 2 42
e 2 44
e 2 47
e 2 48
e 2 51
e 2 52
e 2 53
e 2 60
e 2 62
e 2 64
e 2 67
e 2 70
e 2 72
e 2 75
e 2 77
e 2 78
e 2 81
e 2 83
e 2 85
e 2 90
e 2 105
e 2 114
e 2 122
e 2 133
e 2 138
e 2 144
e 2 149
e 2 162
e 2 165
e 2 170
e 2 174
e 2 184
e 2 185
e 2 187
e 2 188
e 2 205
e 2 212
e 2 215
e 2 217
e 2 221
e 3 17
e 3 18
e 3 19
e 3 22
e 3 24
e 3 26
e 3 27
e 3 28
e 3 37
e 3 39
e 3 43
e 3 45
e 3 46
e 3 49
e 3 51
e 3 52
e 3 54
e 3 59
e 3 63
e 3 66
e 3 69
e 3 89
e 3 92
e 3 95
e 3 97
e 3 99
e 3 106
e 3 123
e 3 125
e 3 130
e 3 134
e 3 135
e 3 140
e 3 149
e 3 150
e 3 154
e 3 156
e 3 176
e 3 177
e 3 179
e 3 183
e 3 184
e 3 190
e 3 191
e 3 195
e 3 202
e 3 207
e 3 209
e 3 218
e 3 221
e 3 222
e 3 227
e 3 231
e 4 17
e 4 18
e 4 19
e 4 20
e 4 21
e 4 23
e 4 24
e 4 29
e 4 30
e 4 35
e 4 45
e 4 49
e 4 51
e 4 58
e 4 63
e 4 66
e 4 68
e 4 77
e 4 86
e 4 88
e 4 91
e 4 127
e 4 131
e 4 136
e 4 137
e 4 140
e 4 184
e 4 189
e 4 190
e 4 228
e 5 17
e 5 18
e 5 19
e 5 21
e 5 22
e 5 23
e 5 24
e 5 27
e 5 28
e 5 33
e 5 36
e 5 37
e 5 45
e 5 51
e 5 66
e 5 74
e 5 75
e 5 76
e 5 85
e 5 90
e 5 105
e 5 110
e 5 121
e 5 132
e 5 134
e 5 193
e 5 202
e 5 223
e 5 232
e 5 249
e 6 17
e 6 20
e 6 21
e 6 23
e 6 25
e 6 40
e 6 41
e 6 45
e 6 90
e 6 144
e 6 205
e 7 17
e 7 18
e 7 19
e 7 20
e 7 21
e 7 22
e 7 23
e 7 25
e 7 27
e 7 28
e 7 29
e 7 30
e 7 31
e 7 32
e 7 34
e 7 36
e 7 41
e 7 42
e 7 46
e 7 48
e 7 54
e 7 55
e 7 57
e 7 59
e 7 61
e 7 62
e 7 71
e 7 96
e 7 101
e 7 106
e 7 121
e 7 125
e 7 132
e 7 146
e 7 147
e 7 148
e 7 165
e 7 173
e 7 179
e 7 189
e 7 193
e 7 196
e 7 213
e 7 223
e 7 226
e 7 229
e 7 234
e 7 239
e 8 17
e 8 18
e 8 19
e 8 20
e 8 22
e 8 23
e 8 24
e 8 26
e 8 27
e 8 28
e 8 29
e 8 32
e 8 33
e 8 41
e 8 42
e 8 43
e 8 45
e 8 56
e 8 58
e 8 59
e 8 64
e 8 65
e 8 68
e 8 71
e 8 73
e 8 75
e 8 87
e 8 101
e 8 102
e 8 104
e 8 117
e 8 122
e 8 132
e 8 134
e 8 141
e 8 146
e 8 153
e 8 161
e 8 163
e 8 175
e 8 183
e 8 188
e 8 191
e 8 194
e 8 218
e 8 219
e 8 230
e 8 238
e 8 242
e 8 243
e 9 17
e 9 18
e 9 19
e 9 20
e 9 21
e 9 22
e 9 23
e 9 24
e 9 33
e 9 34
e 9 38
e 9 39
e 9 42
e 9 45
e 9 50
e 9 51
e 9 58
e 9 59
e 9 62
e 9 71
e 9 77
e 9 78
e 9 82
e 9 83
e 9 90
e 9 91
e 9 95
e 9 101
e 9 108
e 9 117
e 9 118
e 9 120
e 9 123
e 9 128
e 9 136
e 9 146
e 9 152
e 9 154
e 9 155
e 9 160
e 9 165
e 9 185
e 9 195
e 9 212
e 9 220
e 9 222
e 9 232
e 9 238
e 9 248
e 10 17
e 10 18
e 10 19
e 10 20
e 10 23
e 10 24
e 10 25
e 10 26
e 10 33
e 10 34
e 10 37
e 10 39
e 10 40
e 10 48
e 10 51
e 10 52
e 10 54
e 10 60
e 10 62
e 10 70
e 10 77
e 10 79
e 10 99
e 10 126
e 10 127
e 10 157
e 10 180
e 10 202
e 10 219
e 10 222
e 10 223
e 10 225
e 10 228
e 10 229
e 10 232
e 11 17
e 11 18
e 11 19
e 11 20
e 11 21
e 11 25
e 11 27
e 11 28
e 11 29
e 11 30
e 11 31
e 11 33
e 11 35
e 11 40
e 11 41
e 11 43
e 11 47
e 11 48
e 11 49
e 11 52
e 11 54
e 11 56
e 11 57
e 11 64
e 11 67
e 11 69
e 11 71
e 11 75
e 11 80
e 11 87
e 11 89
e 11 92
e 11 93
e 11 99
e 11 106
e 11 110
e 11 113
e 11 115
e 11 117
e 11 119
e 11 123
e 11 124
e 11 129
e 11 139
e 11 141
e 11 146
e 11 149
e 11 161
e 11 181
e 11 187
e 11 196
e 11 198
e 11 212
e 11 215
e 11 216
e 11 239
e 11 242
e 11 244
e 11 245
e 12 17
e 12 18
e 12 19
e 12 22
e 12 24
e 12 26
e 12 35
e 12 37
e 12 38
e 12 48
e 12 70
e 12 78
e 12 100
e 12 123
e 12 175
e 12 209
e 12 248
e 13 17
e 13 18
e 13 19
e 13 20
e 13 21
e 13 22
e 13 23
e 13 24
e 13 25
e 13 26
e 13 29
e 13 31
e 13 34
e 13 39
e 13 43
e 13 44
e 13 46
e 13 48
e 13 53
e 13 55
e 13 59
e 13 62
e 13 67
e 13 69
e 13 70
e 13 78
e 13 80
e 13 84
e 13 95
e 13 98
e 13 105
e 13 108
e 13 110
e 13 116
e 13 158
e 13 168
e 13 181
e 13 186
e 13 197
e 13 199
e 13 200
e 13 212
e 13 218
e 13 223
e 14 17
e 14 18
e 14 19
e 14 20
e 14 21
e 14 22
e 14 25
e 14 27
e 14 28
e 14 32
e 14 35
e 14 36
e 14 37
e 14 38
e 14 40
e 14 47
e 14 52
e 14 55
e 14 57
e 14 66
e 14 72
e 14 74
e 14 76
e 14 78
e 14 81
e 14 85
e 14 104
e 14 108
e 14 117
e 14 118
e 14 121
e 14 130
e 14 142
e 14 147
e 14 156
e 14 158
e 14 161
e 14 162
e 14 169
e 14 187
e 14 188
e 14 191
e 14 204
e 14 207
e 14 208
e 14 209
e 14 216
e 14 222
e 14 227
e 14 235
e 14 240
e 14 250
e 15 17
e 15 18
e 15 19
e 15 20
e 15 21
e 15 22
e 15 23
e 15 24
e 15 25
e 15 29
e 15 33
e 15 44
e 15 50
e 15 51
e 15 67
e 15 81
e 15 92
e 15 101
e 15 105
e 15 125
e 15 161
e 15 175
e 15 178
e 15 180
e 15 181
e 15 183
e 15 198
e 15 202
e 15 203
e 15 206
e 15 214
e 15 215
e 15 226
e 15 229
e 15 238
e 15 239
e 15 248
e 15 250
e 16 17
e 16 18
e 16 19
e 16 20
e 16 21
e 16 22
e 16 26
e 16 28
e 16 29
e 16 31
e 16 32
e 16 38
e 16 40
e 16 41
e 16 49
e 16 53
e 16 60
e 16 61
e 16 63
e 16 68
e 16 74
e 16 91
e 16 92
e 16 99
e 16 101
e 16 113
e 16 114
e 16 115
e 16 117
e 16 118
e 16 120
e 16 124
e 16 128
e 16 129
e 16 135
e 16 139
e 16 151
e 16 154
e 16 164
e 16 180
e 16 187
e 16 190
e 16 192
e 16 196
e 16 197
e 16 224
e 16 237
e 16 246
e 17 18
e 17 19
e 17 20
e 17 21
e 17 22
e 17 23
e 17 24
e 17 25
e 17 26
e 17 27
e 17 28
e 17 29
e 17 30
e 17 31
e 17 32
e 17 34
e 17 35
e 17 36
e 17 37
e 17 39
e 17 41
e 17 42
e 17 43
e 17 45
e 17 46
e 17 47
e 17 50
e 17 52
e 17 53
e 17 55
e 17 59
e 17 61
e 17 64
e 17 65
e 17 67
e 17 68
e 17 72
e 17 73
e 17 76
e 17 77
e 17 79
e 17 81
e 17 82
e 17 85
e 17 87
e 17 88
e 17 89
e 17 90
e 17 96
e 17 97
e 17 106
e 17 109
e 17 114
e 17 118
e 17 127
e 17 130
e 17 131
e 17 132
e 17 137
e 17 152
e 17 153
e 17 155
e 17 158
e 17 159
e 17 162
e 17 168
e 17 170
e 17 176
e 17 178
e 17 188
e 17 190
e 17 197
e 17 202
e 17 203
e 17 205
e 17 207
e 17 208
e 17 210
e 17 212
e 17 219
e 17 225
e 17 238
e 17 242
e 17 245
e 17 247
e 17 248
e 17 249
e 18 19
e 18 20
e 18 21
e 18 22
e 18 23
e 18 24
e 18 25
e 18 26
e 18 27
e 18 28
e 18 29
e 18 30
e 18 31
e 18 34
e 18 36
e 18 37
e 18 39
e 18 41
e 18 44
e 18 45
e 18 47
e 18 49
e 18 52
e 18 54
e 18 57
e 18 60
e 18 61
e 18 62
e 18 63
e 18 64
e 18 66
e 18 69
e 18 70
e 18 72
e 18 73
e 18 79
e 18 80
e 18 81
e 18 82
e 18 86
e 18 87
e 18 88
e 18 92
e 18 96
e 18 97
e 18 101
e 18 105
e 18 110
e 18 114
e 18 120
e 18 125
e 18 137
e 18 138
e 18 143
e 18 149
e 18 155
e 18 172
e 18 173
e 18 180
e 18 182
e 18 210
e 18 213
e 18 214
e 18 220
e 18 222
e 18 223
e 18 224
e 18 227
e 18 228
e 18 230
e 18 236
e 18 240
e 19 20
e 19 21
e 19 22
e 19 23
e 19 24
e 19 25
e 19 26
e 19 27
e 19 30
e 19 31
e 19 32
e 19 35
e 19 36
e 19 37
e 19 38
e 19 42
e 19 43
e 19 45
e 19 46
e 19 50
e 19 52
e 19 54
e 19 60
e 19 61
e 19 62
e 19 68
e 19 72
e 19 74
e 19 75
e 19 76
e 19 79
e 19 80
e 19 88
e 19 96
e 19 97
e 19 98
e 19 104
e 19 107
e 19 109
e 19 112
e 19 116
e 19 117
e 19 124
e 19 126
e 19 137
e 19 139
e 19 144
e 19 145
e 19 146
e 19 149
e 19 150
e 19 152
e 19 153
e 19 155
e 19 156
e 19 163
e 19 164
e 19 167
e 19 168
e 19 171
e 19 176
e 19 182
e 19 187
e 19 188
e 19 192
e 19 193
e 19 194
e 19 195
e 19 204
e 19 206
e 19 209
e 19 223
e 19 231
e 19 235
e 19 236
e 20 21
e 20 22
e 20 23
e 20 24
e 20 25
e 20 26
e 20 27
e 20 28
e 20 29
e 20 30
e 20 31
e 20 32
e 20 33
e 20 34
e 20 35
e 20 36
e 20 38
e 20 39
e 20 40
e 20 41
e 20 42
e 20 44
e 20 47
e 20 54
e 20 55
e 20 58
e 20 64
e 20 65
e 20 67
e 20 74
e 20 77
e 20 78
e 20 79
e 20 82
e 20 83
e 20 84
e 20 91
e 20 92
e 20 93
e 20 95
e 20 99
e 20 101
e 20 102
e 20 103
e 20 111
e 20 112
e 20 116
e 20 122
e 20 126
e 20 129
e 20 143
e 20 149
e 20 152
e 20 154
e 20 159
e 20 172
e 20 177
e 20 185
e 20 186
e 20 187
e 20 190
e 20 191
e 20 194
e 20 199
e 20 202
e 20 215
e 20 220
e 20 227
e 20 249
e 21 22
e 21 23
e 21 24
e 21 25
e 21 27
e 21 28
e 21 29
e 21 30
e 21 31
e 21 32
e 21 33
e 21 34
e 21 36
e 21 37
e 21 38
e 21 41
e 21 42
e 21 43
e 21 44
e 21 45
e 21 46
e 21 50
e 21 51
e 21 53
e 21 54
e 21 55
e 21 60
e 21 62
e 21 65
e 21 69
e 21 71
e 21 72
e 21 73
e 21 74
e 21 77
e 21 80
e 21 82
e 21 83
e 21 84
e 21 87
e 21 102
e 21 109
e 21 116
e 21 118
e 21 124
e 21 128
e 21 129
e 21 130
e 21 135
e 21 136
e 21 142
e 21 148
e 21 153
e 21 157
e 21 160
e 21 161
e 21 164
e 21 167
e 21 173
e 21 174
e 21 179
e 21 181
e 21 187
e 21 196
e 21 197
e 21 198
e 21 202
e 21 203
e 21 205
e 21 208
e 21 216
e 21 217
e 21 218
e 21 235
e 21 241
e 22 23
e 22 24
e 22 25
e 22 26
e 22 27
e 22 28
e 22 30
e 22 33
e 22 34
e 22 35
e 22 36
e 22 37
e 22 38
e 22 39
e 22 41
e 22 43
e 22 47
e 22 52
e 22 53
e 22 55
e 22 56
e 22 59
e 22 62
e 22 64
e 22 67
e 22 68
e 22 72
e 22 81
e 22 83
e 22 84
e 22 86
e 22 87
e 22 88
e 22 91
e 22 94
e 22 97
e 22 99
e 22 100
e 22 105
e 22 111
e 22 113
e 22 115
e 22 116
e 22 120
e 22 129
e 22 139
e 22 141
e 22 142
e 22 150
e 22 157
e 22 163
e 22 165
e 22 167
e 22 174
e 22 190
e 22 194
e 22 200
e 22 203
e 22 207
e 22 208
e 22 217
e 22 222
e 22 231
e 22 235
e 22 244
e 22 248
e 23 24
e 23 25
e 23 26
e 23 27
e 23 28
e 23 29
e 23 30
e 23 31
e 23 32
e 23 33
e 23 34
e 23 36
e 23 37
e 23 40
e 23 43
e 23 49
e 23 50
e 23 54
e 23 55
e 23 57
e 23 58
e 23 59
e 23 61
e 23 65
e 23 67
e 23 75
e 23 77
e 23 79
e 23 81
e 23 94
e 23 96
e 23 102
e 23 103
e 23 111
e 23 114
e 23 116
e 23 117
e 23 118
e 23 121
e 23 122
e 23 123
e 23 124
e 23 126
e 23 131
e 23 133
e 23 135
e 23 136
e 23 143
e 23 147
e 23 151
e 23 152
e 23 159
e 23 168
e 23 175
e 23 182
e 23 186
e 23 191
e 23 192
e 23 196
e 23 197
e 23 199
e 23 204
e 23 205
e 23 206
e 23 212
e 23 213
e 23 217
e 23 246
e 23 247
e 23 248
e 24 25
e 24 26
e 24 27
e 24 29
e 24 31
e 24 32
e 24 33
e 24 34
e 24 35
e 24 38
e 24 39
e 24 40
e 24 41
e 24 42
e 24 43
e 24 44
e 24 46
e 24 52
e 24 53
e 24 58
e 24 59
e 24 63
e 24 66
e 24 67
e 24 69
e 24 74
e 24 76
e 24 77
e 24 80
e 24 82
e 24 83
e 24 87
e 24 94
e 24 97
e 24 98
e 24 102
e 24 107
e 24 109
e 24 110
e 24 112
e 24 132
e 24 133
e 24 134
e 24 138
e 24 139
e 24 142
e 24 156
e 24 161
e 24 164
e 24 166
e 24 181
e 24 182
e 24 183
e 24 186
e 24 197
e 24 208
e 24 210
e 24 213
e 24 220
e 24 227
e 24 234
e 24 236
e 24 249
e 25 26
e 25 27
e 25 28
e 25 29
e 25 30
e 25 31
e 25 32
e 25 35
e 25 36
e 25 37
e 25 38
e 25 40
e 25 43
e 25 44
e 25 45
e 25 47
e 25 48
e 25 50
e 25 56
e 25 57
e 25 67
e 25 68
e 25 71
e 25 74
e 25 75
e 25 76
e 25 77
e 25 78
e 25 87
e 25 90
e 25 92
e 25 95
e 25 96
e 25 104
e 25 110
e 25 111
e 25 113
e 25 117
e 25 125
e 25 134
e 25 137
e 25 145
e 25 150
e 25 156
e 25 159
e 25 170
e 25 171
e 25 173
e 25 177
e 25 178
e 25 180
e 25 183
e 25 193
e 25 195
e 25 198
e 25 201
e 25 203
e 25 207
e 25 209
e 25 211
e 25 218
e 25 233
e 25 240
e 25 242
e 26 30
e 26 32
e 26 33
e 26 37
e 26 39
e 26 40
e 26 41
e 26 42
e 26 44
e 26 47
e 26 48
e 26 49
e 26 55
e 26 58
e 26 62
e 26 63
e 26 65
e 26 68
e 26 69
e 26 70
e 26 72
e 26 74
e 26 75
e 26 85
e 26 87
e 26 89
e 26 93
e 26 96
e 26 97
e 26 102
e 26 115
e 26 117
e 26 118
e 26 119
e 26 141
e 26 147
e 26 156
e 26 159
e 26 164
e 26 168
e 26 169
e 26 170
e 26 176
e 26 182
e 26 189
e 26 194
e 26 200
e 26 208
e 26 211
e 26 215
e 26 223
e 26 240
e 26 243
e 26 250
e 27 28
e 27 29
e 27 30
e 27 31
e 27 32
e 27 33
e 27 34
e 27 35
e 27 36
e 27 39
e 27 40
e 27 41
e 27 45
e 27 46
e 27 47
e 27 49
e 27 50
e 27 53
e 27 54
e 27 56
e 27 58
e 27 59
e 27 60
e 27 63
e 27 64
e 27 67
e 27 75
e 27 81
e 27 85
e 27 89
e 27 94
e 27 96
e 27 99
e 27 104
e 27 106
e 27 109
e 27 110
e 27 124
e 27 125
e 27 126
e 27 131
e 27 132
e 27 133
e 27 138
e 27 141
e 27 146
e 27 147
e 27 152
e 27 159
e 27 179
e 27 182
e 27 183
e 27 184
e 27 186
e 27 191
e 27 198
e 27 234
e 27 238
e 27 239
e 27 240
e 27 242
e 27 243
e 28 29
e 28 30
e 28 31
e 28 32
e 28 33
e 28 34
e 28 35
e 28 36
e 28 37
e 28 38
e 28 39
e 28 40
e 28 44
e 28 45
e 28 48
e 28 57
e 28 58
e 28 61
e 28 62
e 28 65
e 28 67
e 28 69
e 28 71
e 28 72
e 28 75
e 28 83
e 28 88
e 28 91
e 28 94
e 28 98
e 28 100
e 28 106
e 28 107
e 28 108
e 28 114
e 28 115
e 28 116
e 28 118
e 28 120
e 28 121
e 28 127
e 28 134
e 28 135
e 28 136
e 28 140
e 28 143
e 28 147
e 28 159
e 28 160
e 28 168
e 28 172
e 28 176
e 28 177
e 28 178
e 28 179
e 28 185
e 28 186
e 28 197
e 28 207
e 28 210
e 28 216
e 28 220
e 28 221
e 28 222
e 28 224
e 28 226
e 28 236
e 28 239
e 28 245
e 29 30
e 29 35
e 29 37
e 29 38
e 29 39
e 29 43
e 29 45
e 29 46
e 29 49
e 29 50
e 29 53
e 29 54
e 29 57
e 29 61
e 29 63
e 29 64
e 29 65
e 29 67
e 29 68
e 29 73
e 29 76
e 29 78
e 29 79
e 29 84
e 29 94
e 29 96
e 29 103
e 29 105
e 29 112
e 29 113
e 29 116
e 29 118
e 29 123
e 29 126
e 29 127
e 29 131
e 29 134
e 29 138
e 29 146
e 29 153
e 29 168
e 29 174
e 29 179
e 29 187
e 29 190
e 29 192
e 29 197
e 29 216
e 29 224
e 29 227
e 29 231
e 29 238
e 30 31
e 30 35
e 30 40
e 30 41
e 30 42
e 30 47
e 30 55
e 30 57
e 30 59
e 30 71
e 30 79
e 30 80
e 30 87
e 30 91
e 30 95
e 30 99
e 30 100
e 30 104
e 30 106
e 30 114
e 30 120
e 30 124
e 30 133
e 30 137
e 30 138
e 30 140
e 30 143
e 30 148
e 30 153
e 30 169
e 30 189
e 30 192
e 30 199
e 30 208
e 30 226
e 30 230
e 30 241
e 30 247
e 30 249
e 31 32
e 31 34
e 31 35
e 31 39
e 31 41
e 31 43
e 31 44
e 31 50
e 31 52
e 31 53
e 31 57
e 31 66
e 31 70
e 31 78
e 31 84
e 31 85
e 31 91
e 31 105
e 31 109
e 31 110
e 31 120
e 31 130
e 31 131
e 31 137
e 31 138
e 31 141
e 31 145
e 31 148
e 31 155
e 31 156
e 31 167
e 31 171
e 31 175
e 31 179
e 31 183
e 31 186
e 31 195
e 31 206
e 31 214
e 31 216
e 31 233
e 31 234
e 31 236
e 31 241
e 31 248
e 31 249
e 31 250
e 32 34
e 32 38
e 32 40
e 32 41
e 32 42
e 32 43
e 32 44
e 32 48
e 32 50
e 32 51
e 32 52
e 32 53
e 32 58
e 32 60
e 32 61
e 32 65
e 32 73
e 32 77
e 32 80
e 32 88
e 32 91
e 32 92
e 32 94
e 32 98
e 32 101
e 32 106
e 32 108
e 32 110
e 32 121
e 32 131
e 32 135
e 32 141
e 32 148
e 32 149
e 32 153
e 32 154
e 32 157
e 32 160
e 32 168
e 32 170
e 32 187
e 32 196
e 32 202
e 32 204
e 32 210
e 32 211
e 32 213
e 32 218
e 32 226
e 32 228
e 32 229
e 32 240
e 32 246
e 32 250
e 33 34
e 33 46
e 33 47
e 33 50
e 33 51
e 33 52
e 33 56
e 33 60
e 33 63
e 33 66
e 33 68
e 33 70
e 33 71
e 33 77
e 33 79
e 33 82
e 33 83
e 33 89
e 33 93
e 33 101
e 33 111
e 33 132
e 33 133
e 33 146
e 33 151
e 33 168
e 33 173
e 33 175
e 33 178
e 33 181
e 33 185
e 33 191
e 33 194
e 33 201
e 33 215
e 33 218
e 33 226
e 33 229
e 33 230
e 33 234
e 33 236
e 33 241
e 33 250
e 34 36
e 34 46
e 34 49
e 34 55
e 34 57
e 34 64
e 34 68
e 34 76
e 34 84
e 34 99
e 34 112
e 34 119
e 34 126
e 34 144
e 34 146
e 34 156
e 34 157
e 34 167
e 34 177
e 34 183
e 34 186
e 34 193
e 34 218
e 34 231
e 34 242
e 35 36
e 35 37
e 35 40
e 35 42
e 35 51
e 35 55
e 35 56
e 35 65
e 35 67
e 35 70
e 35 86
e 35 91
e 35 93
e 35 94
e 35 103
e 35 107
e 35 109
e 35 116
e 35 117
e 35 127
e 35 137
e 35 143
e 35 145
e 35 160
e 35 174
e 35 184
e 35 189
e 35 200
e 35 201
e 35 206
e 35 214
e 35 217
e 35 223
e 35 225
e 35 230
e 36 43
e 36 44
e 36 45
e 36 47
e 36 48
e 36 53
e 36 54
e 36 56
e 36 63
e 36 72
e 36 73
e 36 76
e 36 78
e 36 80
e 36 81
e 36 82
e 36 85
e 36 88
e 36 89
e 36 90
e 36 98
e 36 104
e 36 125
e 36 129
e 36 131
e 36 141
e 36 148
e 36 154
e 36 157
e 36 166
e 36 179
e 36 188
e 36 201
e 36 204
e 36 207
e 36 208
e 36 215
e 36 226
e 36 228
e 36 230
e 36 237
e 36 242
e 36 247
e 37 38
e 37 39
e 37 42
e 37 44
e 37 46
e 37 48
e 37 49
e 37 50
e 37 51
e 37 54
e 37 55
e 37 58
e 37 60
e 37 61
e 37 71
e 37 72
e 37 80
e 37 84
e 37 85
e 37 86
e 37 89
e 37 93
e 37 100
e 37 102
e 37 103
e 37 104
e 37 105
e 37 108
e 37 109
e 37 110
e 37 111
e 37 112
e 37 124
e 37 125
e 37 126
e 37 137
e 37 139
e 37 144
e 37 145
e 37 149
e 37 158
e 37 164
e 37 165
e 37 176
e 37 177
e 37 182
e 37 185
e 37 186
e 37 196
e 37 197
e 37 198
e 37 201
e 37 205
e 37 207
e 37 214
e 37 216
e 37 217
e 37 220
e 37 221
e 37 222
e 37 225
e 37 226
e 37 230
e 37 231
e 37 235
e 37 240
e 37 245
e 38 45
e 38 46
e 38 50
e 38 57
e 38 61
e 38 63
e 38 68
e 38 71
e 38 91
e 38 93
e 38 94
e 38 95
e 38 104
e 38 105
e 38 112
e 38 114
e 38 120
e 38 133
e 38 140
e 38 143
e 38 149
e 38 155
e 38 163
e 38 166
e 38 167
e 38 169
e 38 191
e 38 209
e 38 211
e 38 212
e 38 219
e 38 221
e 38 238
e 38 239
e 38 248
e 39 42
e 39 46
e 39 49
e 39 55
e 39 57
e 39 60
e 39 61
e 39 62
e 39 65
e 39 66
e 39 69
e 39 74
e 39 75
e 39 77
e 39 78
e 39 81
e 39 84
e 39 86
e 39 99
e 39 106
e 39 109
e 39 123
e 39 125
e 39 128
e 39 130
e 39 131
e 39 133
e 39 144
e 39 151
e 39 161
e 39 164
e 39 173
e 39 177
e 39 181
e 39 190
e 39 194
e 39 203
e 39 205
e 39 209
e 39 220
e 39 224
e 39 228
e 40 42
e 40 48
e 40 52
e 40 54
e 40 57
e 40 59
e 40 60
e 40 64
e 40 66
e 40 72
e 40 73
e 40 82
e 40 83
e 40 87
e 40 93
e 40 94
e 40 103
e 40 107
e 40 126
e 40 128
e 40 134
e 40 141
e 40 151
e 40 156
e 40 161
e 40 162
e 40 174
e 40 175
e 40 185
e 40 188
e 40 195
e 40 201
e 40 203
e 40 218
e 40 232
e 40 240
e 41 46
e 41 48
e 41 52
e 41 56
e 41 58
e 41 59
e 41 61
e 41 64
e 41 80
e 41 81
e 41 82
e 41 90
e 41 92
e 41 94
e 41 97
e 41 101
e 41 102
e 41 111
e 41 112
e 41 124
e 41 136
e 41 151
e 41 153
e 41 156
e 41 157
e 41 169
e 41 170
e 41 199
e 42 43
e 42 44
e 42 49
e 42 53
e 42 56
e 42 70
e 42 73
e 42 81
e 42 84
e 42 86
e 42 89
e 42 90
e 42 95
e 42 96
e 42 98
e 42 109
e 42 115
e 42 118
e 42 119
e 42 121
e 42 127
e 42 130
e 42 134
e 42 156
e 42 163
e 42 169
e 42 172
e 42 181
e 42 185
e 42 192
e 42 196
e 42 198
e 42 199
e 42 213
e 42 217
e 42 219
e 42 235
e 42 245
e 43 44
e 43 47
e 43 51
e 43 56
e 43 69
e 43 70
e 43 74
e 43 79
e 43 88
e 43 95
e 43 101
e 43 111
e 43 114
e 43 119
e 43 123
e 43 128
e 43 136
e 43 158
e 43 160
e 43 162
e 43 164
e 43 165
e 43 169
e 43 170
e 43 171
e 43 174
e 43 192
e 43 217
e 43 224
e 43 235
e 44 46
e 44 47
e 44 49
e 44 50
e 44 54
e 44 56
e 44 58
e 44 60
e 44 62
e 44 64
e 44 66
e 44 70
e 44 86
e 44 100
e 44 107
e 44 108
e 44 111
e 44 123
e 44 134
e 44 139
e 44 144
e 44 150
e 44 171
e 44 175
e 44 189
e 44 196
e 44 198
e 44 201
e 44 215
e 44 220
e 44 221
e 44 229
e 44 232
e 44 234
e 44 241
e 45 48
e 45 51
e 45 52
e 45 67
e 45 115
e 45 119
e 45 133
e 45 163
e 45 167
e 45 169
e 45 171
e 45 181
e 45 198
e 45 237
e 45 245
e 46 47
e 46 49
e 46 50
e 46 51
e 46 56
e 46 64
e 46 65
e 46 66
e 46 68
e 46 70
e 46 71
e 46 72
e 46 74
e 46 76
e 46 78
e 46 79
e 46 82
e 46 84
e 46 86
e 46 89
e 46 91
e 46 98
e 46 100
e 46 101
e 46 102
e 46 109
e 46 110
e 46 124
e 46 128
e 46 129
e 46 130
e 46 131
e 46 133
e 46 143
e 46 144
e 46 146
e 46 147
e 46 152
e 46 157
e 46 159
e 46 166
e 46 169
e 46 176
e 46 178
e 46 181
e 46 189
e 46 193
e 46 199
e 46 206
e 46 211
e 46 233
e 46 240
e 46 241
e 46 247
e 46 248
e 46 249
e 47 48
e 47 53
e 47 61
e 47 64
e 47 69
e 47 73
e 47 77
e 47 79
e 47 83
e 47 107
e 47 108
e 47 113
e 47 118
e 47 126
e 47 129
e 47 132
e 47 178
e 47 194
e 47 196
e 47 205
e 47 206
e 47 249
e 48 49
e 48 58
e 48 91
e 48 92
e 48 103
e 48 109
e 48 113
e 48 115
e 48 125
e 48 128
e 48 146
e 48 152
e 48 158
e 48 174
e 48 208
e 48 238
e 48 244
e 49 53
e 49 55
e 49 57
e 49 58
e 49 65
e 49 73
e 49 74
e 49 76
e 49 78
e 49 90
e 49 94
e 49 98
e 49 101
e 49 103
e 49 105
e 49 106
e 49 107
e 49 108
e 49 113
e 49 117
e 49 122
e 49 130
e 49 147
e 49 157
e 49 176
e 49 177
e 49 187
e 49 203
e 49 213
e 49 224
e 49 231
e 49 233
e 49 245
e 50 59
e 50 71
e 50 80
e 50 83
e 50 89
e 50 94
e 50 101
e 50 111
e 50 116
e 50 135
e 50 141
e 50 149
e 50 158
e 50 161
e 50 173
e 50 180
e 50 184
e 50 188
e 50 201
e 50 205
e 50 212
e 50 223
e 50 224
e 51 53
e 51 56
e 51 66
e 51 68
e 51 69
e 51 77
e 51 80
e 51 87
e 51 89
e 51 96
e 51 100
e 51 111
e 51 120
e 51 131
e 51 151
e 51 155
e 51 166
e 51 169
e 51 202
e 51 227
e 51 235
e 51 236
e 51 238
e 51 241
e 51 245
e 52 56
e 52 60
e 52 70
e 52 83
e 52 98
e 52 120
e 52 122
e 52 131
e 52 136
e 52 149
e 52 160
e 52 166
e 52 170
e 52 225
e 53 54
e 53 55
e 53 56
e 53 61
e 53 62
e 53 63
e 53 81
e 53 82
e 53 87
e 53 89
e 53 90
e 53 95
e 53 97
e 53 99
e 53 100
e 53 103
e 53 107
e 53 123
e 53 129
e 53 136
e 53 139
e 53 147
e 53 158
e 53 162
e 53 173
e 53 174
e 53 175
e 53 180
e 53 201
e 53 203
e 53 205
e 53 222
e 53 228
e 53 231
e 53 248
e 54 63
e 54 66
e 54 72
e 54 75
e 54 78
e 54 86
e 54 88
e 54 102
e 54 124
e 54 192
e 54 199
e 54 219
e 55 58
e 55 60
e 55 64
e 55 65
e 55 68
e 55 69
e 55 77
e 55 79
e 55 85
e 55 90
e 55 97
e 55 103
e 55 105
e 55 107
e 55 122
e 55 125
e 55 140
e 55 153
e 55 155
e 55 157
e 55 161
e 55 172
e 55 175
e 55 213
e 55 230
e 55 236
e 56 57
e 56 59
e 56 61
e 56 65
e 56 67
e 56 69
e 56 70
e 56 73
e 56 75
e 56 81
e 56 82
e 56 91
e 56 92
e 56 101
e 56 103
e 56 104
e 56 109
e 56 114
e 56 116
e 56 119
e 56 121
e 56 123
e 56 126
e 56 129
e 56 140
e 56 143
e 56 148
e 56 151
e 56 154
e 56 164
e 56 176
e 56 194
e 56 205
e 56 208
e 56 211
e 56 212
e 56 219
e 56 223
e 56 232
e 57 62
e 57 63
e 57 72
e 57 75
e 57 79
e 57 95
e 57 139
e 57 141
e 57 150
e 57 152
e 57 154
e 57 158
e 57 165
e 57 188
e 57 194
e 57 209
e 57 213
e 57 216
e 57 219
e 57 223
e 57 229
e 57 234
e 57 242
e 57 243
e 57 246
e 58 59
e 58 73
e 58 82
e 58 88
e 58 103
e 58 106
e 58 112
e 58 120
e 58 123
e 58 127
e 58 144
e 58 152
e 58 154
e 58 159
e 58 168
e 58 177
e 58 191
e 58 245
e 58 246
e 59 60
e 59 62
e 59 66
e 59 71
e 59 99
e 59 108
e 59 111
e 59 119
e 59 123
e 59 147
e 59 185
e 59 189
e 59 190
e 59 205
e 59 225
e 60 65
e 60 81
e 60 86
e 60 88
e 60 93
e 60 97
e 60 117
e 60 123
e 60 127
e 60 134
e 60 137
e 60 143
e 60 145
e 60 158
e 60 159
e 60 163
e 60 164
e 60 182
e 60 189
e 60 196
e 60 199
e 60 205
e 60 209
e 60 210
e 60 228
e 60 239
e 60 241
e 60 244
e 61 73
e 61 85
e 61 93
e 61 94
e 61 103
e 61 107
e 61 122
e 61 132
e 61 137
e 61 141
e 61 161
e 61 162
e 61 170
e 61 173
e 61 201
e 61 217
e 61 234
e 61 249
e 62 63
e 62 79
e 62 85
e 62 86
e 62 95
e 62 102
e 62 108
e 62 115
e 62 147
e 62 148
e 62 150
e 62 175
e 62 180
e 62 183
e 62 184
e 62 189
e 62 197
e 62 204
e 62 214
e 62 225
e 63 83
e 63 85
e 63 87
e 63 88
e 63 109
e 63 114
e 63 135
e 63 136
e 63 145
e 63 149
e 63 150
e 63 153
e 63 159
e 63 173
e 63 175
e 63 195
e 63 230
e 63 248
e 64 66
e 64 70
e 64 71
e 64 75
e 64 76
e 64 89
e 64 90
e 64 97
e 64 106
e 64 112
e 64 119
e 64 122
e 64 130
e 64 135
e 64 144
e 64 147
e 64 150
e 64 167
e 64 182
e 64 197
e 64 214
e 65 73
e 65 80
e 65 84
e 65 91
e 65 93
e 65 99
e 65 105
e 65 126
e 65 132
e 65 140
e 65 147
e 65 151
e 65 158
e 65 162
e 65 167
e 65 200
e 65 210
e 65 211
e 65 232
e 65 235
e 65 236
e 66 69
e 66 71
e 66 72
e 66 73
e 66 74
e 66 79
e 66 84
e 66 88
e 66 90
e 66 96
e 66 102
e 66 110
e 66 113
e 66 133
e 66 142
e 66 163
e 66 167
e 66 172
e 66 173
e 66 186
e 66 189
e 66 190
e 66 196
e 66 202
e 66 203
e 66 209
e 66 215
e 66 218
e 66 234
e 66 238
e 66 250
e 67 69
e 67 74
e 67 75
e 67 82
e 67 84
e 67 94
e 67 104
e 67 105
e 67 106
e 67 107
e 67 135
e 67 136
e 67 141
e 67 172
e 67 184
e 67 191
e 67 195
e 67 218
e 67 246
e 68 109
e 68 119
e 68 126
e 68 127
e 68 128
e 68 135
e 68 140
e 68 146
e 68 160
e 68 173
e 68 179
e 68 198
e 68 214
e 68 227
e 68 230
e 68 235
e 69 76
e 69 83
e 69 85
e 69 92
e 69 95
e 69 99
e 69 103
e 69 114
e 69 123
e 69 129
e 69 133
e 69 135
e 69 138
e 69 142
e 69 148
e 69 158
e 69 161
e 69 162
e 69 167
e 69 178
e 69 186
e 69 196
e 69 200
e 69 202
e 69 204
e 69 211
e 69 225
e 69 228
e 69 237
e 69 241
e 69 247
e 69 248
e 70 90
e 70 95
e 70 98
e 70 106
e 70 110
e 70 113
e 70 114
e 70 122
e 70 142
e 70 145
e 70 163
e 70 243
e 71 76
e 71 78
e 71 81
e 71 82
e 71 83
e 71 87
e 71 91
e 71 95
e 71 103
e 71 116
e 71 125
e 71 129
e 71 133
e 71 152
e 71 154
e 71 198
e 71 207
e 71 214
e 71 216
e 71 233
e 71 235
e 71 236
e 72 74
e 72 86
e 72 94
e 72 96
e 72 100
e 72 107
e 72 117
e 72 128
e 72 129
e 72 155
e 72 156
e 72 159
e 72 166
e 72 179
e 72 184
e 72 201
e 72 213
e 72 217
e 72 224
e 72 228
e 72 239
e 73 76
e 73 80
e 73 85
e 73 86
e 73 92
e 73 100
e 73 158
e 73 166
e 73 175
e 73 176
e 73 183
e 73 237
e 73 249
e 74 76
e 74 96
e 74 98
e 74 100
e 74 106
e 74 122
e 74 126
e 74 155
e 74 158
e 74 167
e 74 171
e 74 183
e 74 196
e 75 98
e 75 99
e 75 106
e 75 111
e 75 120
e 75 121
e 75 132
e 75 133
e 75 144
e 75 147
e 75 148
e 75 160
e 75 163
e 75 165
e 75 171
e 75 172
e 75 187
e 75 190
e 75 195
e 75 218
e 75 233
e 75 244
e 76 80
e 76 83
e 76 85
e 76 96
e 76 101
e 76 110
e 76 113
e 76 118
e 76 130
e 76 133
e 76 140
e 76 142
e 76 156
e 76 164
e 76 165
e 76 199
e 76 209
e 76 210
e 76 223
e 76 234
e 76 247
e 77 86
e 77 89
e 77 92
e 77 102
e 77 104
e 77 121
e 77 128
e 77 130
e 77 144
e 77 152
e 77 153
e 77 160
e 77 165
e 77 206
e 77 229
e 77 242
e 77 247
e 78 115
e 78 141
e 78 143
e 79 92
e 79 93
e 79 100
e 79 102
e 79 118
e 79 128
e 79 134
e 79 135
e 79 144
e 79 160
e 79 246
e 80 95
e 80 98
e 80 104
e 80 107
e 80 117
e 80 125
e 80 127
e 80 147
e 80 163
e 80 170
e 80 175
e 80 185
e 80 192
e 80 193
e 80 198
e 80 211
e 80 215
e 80 236
e 80 244
e 81 84
e 81 99
e 81 110
e 81 119
e 81 127
e 81 129
e 81 131
e 81 135
e 81 145
e 81 151
e 81 166
e 81 172
e 81 185
e 81 191
e 81 192
e 81 214
e 81 227
e 81 230
e 81 238
e 82 84
e 82 87
e 82 88
e 82 93
e 82 103
e 82 109
e 82 111
e 82 115
e 82 119
e 82 121
e 82 122
e 82 133
e 82 143
e 82 145
e 82 150
e 82 154
e 82 171
e 82 178
e 82 194
e 82 200
e 82 202
e 82 211
e 82 216
e 82 238
e 82 249
e 83 93
e 83 96
e 83 114
e 83 121
e 83 124
e 83 132
e 83 134
e 83 142
e 83 148
e 83 165
e 83 166
e 83 169
e 83 183
e 83 197
e 83 208
e 83 212
e 83 217
e 83 241
e 83 249
e 84 105
e 84 128
e 84 156
e 84 172
e 85 107
e 85 108
e 85 112
e 85 113
e 85 115
e 85 119
e 85 120
e 85 121
e 85 128
e 85 134
e 85 140
e 85 150
e 85 151
e 85 157
e 85 171
e 85 224
e 85 236
e 85 242
e 86 98
e 86 104
e 86 112
e 86 114
e 86 115
e 86 117
e 86 121
e 86 125
e 86 130
e 86 136
e 86 144
e 86 172
e 86 191
e 86 206
e 86 207
e 86 210
e 86 214
e 86 241
e 87 88
e 87 89
e 87 102
e 87 113
e 87 119
e 87 128
e 87 134
e 87 148
e 87 154
e 87 161
e 87 172
e 87 199
e 87 213
e 87 236
e 87 247
e 87 248
e 88 97
e 88 102
e 88 112
e 88 116
e 88 135
e 88 137
e 88 178
e 88 183
e 88 192
e 88 216
e 88 229
e 88 239
e 88 249
e 89 104
e 89 108
e 89 113
e 89 149
e 89 180
e 89 195
e 89 207
e 89 230
e 89 234
e 90 97
e 90 121
e 90 143
e 90 151
e 90 184
e 90 194
e 90 197
e 90 198
e 90 208
e 90 217
e 91 92
e 91 98
e 91 112
e 91 115
e 91 130
e 91 164
e 91 174
e 91 186
e 91 190
e 91 195
e 91 203
e 91 207
e 91 238
e 92 93
e 92 100
e 92 105
e 92 108
e 92 119
e 92 135
e 92 138
e 92 139
e 92 162
e 92 166
e 92 182
e 92 189
e 92 232
e 92 233
e 92 244
e 92 250
e 93 108
e 93 118
e 93 138
e 93 141
e 93 154
e 93 170
e 93 175
e 93 178
e 93 196
e 93 216
e 93 233
e 94 100
e 94 150
e 94 153
e 94 155
e 94 172
e 94 197
e 94 207
e 94 221
e 94 223
e 95 97
e 95 104
e 95 118
e 95 124
e 95 129
e 95 143
e 95 179
e 95 200
e 95 217
e 95 226
e 96 100
e 96 116
e 96 132
e 96 165
e 96 169
e 96 197
e 96 243
e 96 246
e 97 113
e 97 118
e 97 132
e 97 136
e 97 153
e 97 157
e 97 166
e 97 171
e 97 174
e 97 177
e 97 179
e 97 194
e 97 195
e 97 207
e 97 220
e 97 229
e 97 232
e 97 237
e 97 244
e 97 248
e 98 114
e 98 115
e 98 146
e 98 151
e 98 187
e 98 188
e 98 195
e 98 217
e 98 242
e 99 107
e 99 122
e 99 140
e 99 154
e 99 158
e 99 170
e 99 171
e 99 172
e 99 180
e 99 200
e 99 224
e 100 111
e 100 117
e 100 138
e 100 145
e 100 159
e 100 165
e 100 188
e 100 206
e 100 237
e 100 240
e 101 112
e 101 142
e 101 143
e 101 149
e 101 155
e 101 164
e 101 208
e 101 243
e 101 250
e 102 108
e 102 122
e 102 166
e 102 172
e 102 181
e 102 184
e 102 204
e 102 210
e 102 229
e 102 236
e 103 127
e 103 142
e 103 153
e 103 157
e 103 162
e 103 191
e 103 200
e 103 203
e 103 219
e 103 227
e 103 231
e 103 246
e 104 110
e 104 122
e 104 141
e 104 145
e 104 152
e 104 153
e 104 177
e 104 197
e 104 211
e 104 222
e 104 228
e 104 231
e 104 237
e 104 245
e 105 116
e 105 120
e 105 123
e 105 130
e 105 138
e 105 147
e 105 148
e 105 184
e 105 185
e 105 204
e 105 227
e 105 232
e 105 242
e 106 111
e 106 148
e 106 155
e 106 160
e 106 165
e 106 174
e 106 178
e 106 182
e 106 224
e 106 228
e 106 234
e 106 236
e 107 138
e 107 139
e 107 196
e 107 247
e 108 112
e 108 119
e 108 124
e 108 125
e 108 131
e 108 138
e 108 142
e 108 154
e 108 160
e 108 161
e 108 163
e 108 204
e 108 214
e 108 225
e 108 231
e 108 241
e 109 115
e 109 121
e 109 139
e 109 166
e 109 173
e 109 186
e 109 192
e 109 211
e 109 212
e 109 216
e 109 238
e 110 116
e 110 127
e 110 136
e 110 157
e 110 168
e 110 203
e 110 220
e 110 226
e 110 230
e 110 240
e 111 159
e 111 177
e 111 183
e 111 204
e 111 206
e 111 222
e 111 223
e 112 113
e 112 120
e 112 125
e 112 127
e 112 139
e 112 140
e 112 142
e 112 146
e 112 153
e 112 174
e 112 206
e 112 221
e 112 228
e 112 231
e 112 244
e 113 167
e 113 215
e 113 237
e 114 161
e 114 168
e 114 210
e 114 228
e 115 124
e 115 138
e 115 150
e 115 163
e 115 170
e 115 204
e 115 205
e 116 124
e 116 149
e 116 163
e 116 184
e 116 188
e 116 195
e 116 219
e 116 221
e 116 229
e 117 138
e 117 139
e 117 150
e 117 182
e 117 210
e 117 232
e 117 241
e 118 120
e 118 140
e 118 145
e 118 159
e 118 173
e 118 183
e 118 191
e 118 200
e 118 213
e 118 221
e 118 229
e 118 237
e 119 134
e 120 126
e 120 140
e 120 142
e 120 152
e 120 159
e 120 160
e 120 162
e 120 176
e 120 178
e 120 204
e 120 209
e 120 242
e 121 122
e 121 131
e 121 143
e 121 151
e 121 169
e 121 179
e 121 216
e 121 224
e 121 231
e 122 126
e 122 129
e 122 131
e 122 132
e 122 137
e 122 139
e 122 162
e 122 168
e 122 176
e 122 180
e 122 199
e 122 210
e 123 137
e 123 139
e 123 174
e 123 177
e 123 178
e 123 190
e 123 194
e 123 206
e 123 245
e 124 155
e 124 211
e 124 226
e 124 227
e 125 128
e 125 168
e 125 180
e 125 186
e 125 193
e 125 201
e 125 218
e 125 221
e 125 233
e 126 127
e 126 130
e 126 145
e 126 146
e 126 157
e 126 182
e 126 214
e 126 240
e 126 244
e 126 246
e 127 144
e 127 145
e 127 150
e 127 166
e 127 171
e 127 181
e 127 208
e 127 232
e 128 140
e 128 169
e 128 178
e 128 202
e 128 221
e 128 239
e 128 240
e 128 248
e 129 187
e 129 191
e 129 225
e 129 235
e 129 249
e 130 132
e 130 136
e 130 152
e 130 169
e 130 204
e 130 216
e 130 240
e 131 144
e 131 179
e 131 199
e 131 218
e 131 239
e 132 137
e 132 142
e 132 160
e 132 162
e 132 164
e 132 177
e 132 179
e 132 181
e 132 189
e 132 215
e 132 225
e 133 137
e 133 142
e 133 205
e 133 225
e 133 229
e 133 250
e 134 145
e 134 192
e 134 199
e 134 206
e 134 209
e 134 215
e 134 223
e 134 240
e 134 242
e 134 247
e 134 249
e 135 170
e 135 198
e 135 227
e 135 235
e 135 237
e 136 162
e 136 166
e 136 168
e 136 184
e 136 187
e 136 208
e 136 218
e 136 222
e 137 148
e 137 151
e 137 156
e 137 168
e 137 171
e 137 186
e 137 207
e 137 230
e 138 151
e 138 164
e 138 176
e 138 192
e 138 194
e 138 219
e 139 155
e 139 202
e 139 228
e 139 237
e 140 148
e 140 176
e 140 185
e 140 189
e 140 241
e 140 243
e 141 182
e 141 209
e 141 239
e 142 154
e 142 182
e 142 242
e 142 250
e 143 155
e 143 160
e 143 182
e 143 247
e 144 188
e 144 193
e 144 213
e 144 219
e 144 236
e 146 156
e 146 165
e 146 172
e 146 246
e 147 149
e 147 163
e 147 184
e 147 239
e 147 242
e 148 152
e 148 162
e 148 171
e 148 204
e 148 208
e 148 237
e 148 244
e 149 150
e 149 157
e 149 163
e 149 210
e 149 226
e 150 170
e 150 173
e 150 217
e 151 161
e 151 174
e 151 177
e 151 179
e 151 193
e 151 210
e 152 158
e 152 181
e 152 201
e 152 202
e 152 213
e 152 220
e 152 230
e 152 233
e 153 164
e 153 181
e 153 192
e 153 193
e 153 223
e 153 246
e 154 174
e 154 188
e 154 212
e 154 214
e 154 218
e 154 219
e 154 222
e 155 165
e 155 200
e 155 207
e 155 226
e 156 177
e 156 180
e 156 189
e 156 243
e 156 244
e 157 171
e 157 185
e 157 234
e 158 167
e 158 185
e 158 192
e 158 193
e 158 194
e 158 220
e 159 169
e 159 175
e 159 244
e 160 173
e 160 198
e 160 201
e 160 206
e 160 220
e 161 176
e 161 180
e 161 201
e 161 243
e 162 167
e 162 193
e 162 243
e 163 170
e 163 190
e 163 193
e 163 214
e 163 233
e 163 243
e 163 245
e 163 247
e 164 211
e 165 215
e 165 224
e 166 167
e 166 176
e 166 188
e 166 199
e 166 200
e 166 212
e 166 220
e 166 221
e 166 238
e 167 181
e 167 215
e 167 233
e 168 205
e 168 222
e 169 183
e 169 184
e 169 216
e 170 190
e 170 250
e 171 186
e 171 187
e 171 198
e 171 203
e 171 209
e 171 231
e 171 243
e 172 187
e 172 246
e 172 247
e 173 180
e 173 209
e 173 215
e 173 221
e 174 211
e 174 219
e 174 228
e 174 237
e 175 225
e 175 234
e 176 178
e 176 241
e 177 195
e 177 212
e 178 195
e 178 212
e 179 213
e 179 233
e 180 193
e 180 200
e 180 201
e 181 185
e 182 231
e 183 239
e 184 190
e 184 217
e 184 222
e 184 225
e 184 235
e 184 248
e 185 189
e 185 191
e 185 220
e 185 237
e 186 188
e 186 202
e 186 204
e 186 221
e 186 241
e 187 200
e 188 221
e 188 246
e 191 200
e 192 249
e 193 244
e 194 239
e 195 225
e 195 232
e 197 199
e 197 203
e 197 219
e 197 244
e 198 243
e 200 210
e 200 226
e 200 245
e 200 250
e 201 212
e 202 203
e 202 206
e 202 233
e 203 211
e 203 213
e 203 219
e 204 239
e 204 246
e 206 214
e 206 232
e 206 243
e 207 235
e 208 227
e 208 235
e 209 232
e 209 240
e 210 224
e 210 243
e 210 245
e 211 226
e 212 222
e 214 224
e 214 226
e 215 229
e 218 250
e 219 220
e 219 234
e 220 245
e 220 250
e 221 225
e 221 227
e 222 230
e 223 229
e 225 227
e 226 232
e 227 233
e 228 237
e 229 245
e 230 250
e 231 233
e 231 247
e 233 234
e 234 238
e 239 247
e 241 246
